177360
0,28,61,69,72,9,44,12,36,64,49,3,38,77,78,5,41,54,2,56,48,33,46,26,32,1,37,15,10,34,40,51,62,82,24,14,68,22,11,59,80,42,71,50,55,6,16,65,35,81,43,20,17,23,47,30,67,58,74,73,57,39,29,27,18,4,21,52,7,60,31,76,8,70,53,19,25,75,66,13,79,45,63
